Set parameter LicenseID to value 2609176
Set parameter TimeLimit to value 1800
Gurobi Optimizer version 11.0.3 build v11.0.3rc0 (linux64 - "Debian GNU/Linux 12 (bookworm)")

CPU model: AMD EPYC 7B12, instruction set [SSE2|AVX|AVX2]
Thread count: 4 physical cores, 8 logical processors, using up to 8 threads

Optimize a model with 1798688 rows, 511225 columns and 403528408 nonzeros
Model fingerprint: 0x93b8869d
Variable types: 0 continuous, 511225 integer (511225 binary)
Coefficient statistics:
  Matrix range     [1e+00, 1e+00]
  Objective range  [0e+00, 0e+00]
  Bounds range     [1e+00, 1e+00]
  RHS range        [1e+00, 1e+00]
Presolve removed 0 rows and 0 columns (presolve time = 13s) ...
Presolve removed 0 rows and 0 columns (presolve time = 16s) ...
Presolve removed 0 rows and 0 columns (presolve time = 21s) ...
Presolve removed 358 rows and 358 columns (presolve time = 29s) ...
Presolve removed 358 rows and 358 columns (presolve time = 37s) ...
Presolve removed 358 rows and 358 columns (presolve time = 43s) ...
Presolve removed 358 rows and 358 columns (presolve time = 45s) ...
Presolve removed 358 rows and 358 columns (presolve time = 51s) ...
